RAW/CMTT/fspd-mid/CMT7T.vrp_seed-3.out
903.0474612	1.836	146.018
