RAW/CMTT/fspd-mid/CMT7T.vrp_seed-3.sol
Route #1: 2 28 61 69 21 74 75
Route #2: 26 58 10 31 39 72 12
Route #3: 53 11 66 65 38
Route #4: 51 16 49 24 3 44 40 17
Route #5: 27 15 57 13 54 52 34 67
Route #6: 9 25 55 18 50 32
Route #7: 46 8 19 59 14 35 7
Route #8: 73 1 42 64 22 62 68
Route #9: 37 20 70 60 71 36
Route #10: 4 45 29 5 47 48 30
Route #11: 6 33 43 41 56 23 63
Cost 903.047461